
Log started (V11.0.0) Wed Apr 16 04:06:09 2008

Tried aggregator 1 time.
Reduced MIP has 120 rows, 2001 columns, and 4020 nonzeros.
Presolve time =    0.01 sec.
Clique table members: 100.
MIP emphasis: balance optimality and feasibility.
MIP search method: dynamic search.
Parallel mode: none, using 1 thread.
Root relaxation solution time =    0.03 sec.

        Nodes                                         Cuts/
   Node  Left     Objective  IInf  Best Integer     Best Node    ItCnt     Gap

*     0+    0                         5678.0000       76.0754      359   98.66%
*     0+    0                           99.0000       76.0754      359   23.16%
      0     0       77.0000    37       99.0000     Fract: 10      407   22.22%
*     0+    0                           93.0000       77.0000      407   17.20%
*     0+    0                           92.0000       77.0000      407   16.30%
*     0+    0                           90.0000       77.0000      407   14.44%
*     0+    0                           89.0000       77.0000      407   13.48%
*     0+    0                           84.0000       77.0000      407    8.33%
      0     2       77.0000    37       84.0000       77.0000      407    8.33%
*    10+   10                           83.0000       77.0000      629    7.23%
    100    73    infeasible             83.0000       77.0000     3618    7.23%
    200   145       79.0000    37       83.0000       77.0000     6435    7.23%
    300   206       79.0000    34       83.0000       77.0000     9846    7.23%
    400   277       78.0000    31       83.0000       77.0000    11500    7.23%
*   420+  225                           81.0000       77.0000    11941    4.94%
    500   281       79.0000    32       81.0000       77.0000    14095    4.94%
*   531+  197                           80.0000       77.4246    15751    3.22%
    600   212    infeasible             80.0000       78.0000    18760    2.50%
    700   197       79.0000    61       80.0000       78.0000    25722    2.50%
    800   201       79.0000    67       80.0000       78.0000    31210    2.50%
    900   258       79.0000    66       80.0000       79.0000    39224    1.25%
   1000   268       79.0000    59       80.0000       79.0000    60645    1.25%
Elapsed time =  13.67 sec. (tree size =  1.23 MB, solutions = 10)
   1100   311    infeasible             80.0000       79.0000    71871    1.25%
   1200   317       79.0000   108       80.0000       79.0000    92103    1.25%
   1300   337       79.0000   111       80.0000       79.0000   111726    1.25%
   1400   381       79.0000    46       80.0000       79.0000   123159    1.25%
*  1407     0      integral     0       79.0000       79.0000   124013    0.00%

Cover cuts applied:  392
Mixed integer rounding cuts applied:  27
Zero-half cuts applied:  3
Gomory fractional cuts applied:  5

Solution pool: 11 solutions saved.

MIP - Integer optimal solution:  Objective = 7.9000000000e+001
Solution time =   24.30 sec.  Iterations = 124013  Nodes = 1408


Incumbent solution
Variable Name           Solution Value
Cmax                         79.000000
X_1_10                        1.000000
X_2_6                         1.000000
X_3_1                         1.000000
X_4_9                         1.000000
X_5_4                         1.000000
X_6_14                        1.000000
X_7_9                         1.000000
X_8_3                         1.000000
X_9_4                         1.000000
X_10_19                       1.000000
X_11_5                        1.000000
X_12_8                        1.000000
X_13_6                        1.000000
X_14_6                        1.000000
X_15_15                       1.000000
X_16_1                        1.000000
X_17_2                        1.000000
X_18_10                       1.000000
X_19_17                       1.000000
X_20_11                       1.000000
X_21_5                        1.000000
X_22_20                       1.000000
X_23_17                       1.000000
X_24_12                       1.000000
X_25_15                       1.000000
X_26_16                       1.000000
X_27_5                        1.000000
X_28_12                       1.000000
X_29_17                       1.000000
X_30_20                       1.000000
X_31_7                        1.000000
X_32_7                        1.000000
X_33_3                        1.000000
X_34_5                        1.000000
X_35_8                        1.000000
X_36_11                       1.000000
X_37_18                       1.000000
X_38_19                       1.000000
X_39_18                       1.000000
X_40_3                        1.000000
X_41_4                        1.000000
X_42_10                       1.000000
X_43_18                       1.000000
X_44_12                       1.000000
X_45_15                       1.000000
X_46_17                       1.000000
X_47_18                       1.000000
X_48_16                       1.000000
X_49_16                       1.000000
X_50_10                       1.000000
X_51_12                       1.000000
X_52_13                       1.000000
X_53_8                        1.000000
X_54_4                        1.000000
X_55_11                       1.000000
X_56_15                       1.000000
X_57_20                       1.000000
X_58_11                       1.000000
X_59_16                       1.000000
X_60_5                        1.000000
X_61_15                       1.000000
X_62_14                       1.000000
X_63_2                        1.000000
X_64_6                        1.000000
X_65_1                        1.000000
X_66_1                        1.000000
X_67_10                       1.000000
X_68_4                        1.000000
X_69_3                        1.000000
X_70_13                       1.000000
X_71_13                       1.000000
X_72_14                       1.000000
X_73_3                        1.000000
X_74_10                       1.000000
X_75_9                        1.000000
X_76_8                        1.000000
X_77_12                       1.000000
X_78_20                       1.000000
X_79_9                        1.000000
X_80_14                       1.000000
X_81_19                       1.000000
X_82_12                       1.000000
X_83_11                       1.000000
X_84_8                        1.000000
X_85_7                        1.000000
X_86_13                       1.000000
X_87_7                        1.000000
X_88_9                        1.000000
X_89_2                        1.000000
X_90_17                       1.000000
X_91_4                        1.000000
X_92_1                        1.000000
X_93_6                        1.000000
X_94_2                        1.000000
X_95_13                       1.000000
X_96_13                       1.000000
X_97_14                       1.000000
X_98_19                       1.000000
X_99_18                       1.000000
X_100_7                       1.000000
All other variables in the range 1-2001 are 0.
